results/x-filo0/X-n115-k10.vrp_seed-44.vrp.sol
Route #1: 10
Route #2: 13 70 56 31 11 36
Route #3: 6 5 16
Route #4: 85 74 1 7 98 63 34
Route #5: 95 107 57 92 4 101 20 94 62 100 28
Route #6: 111 110 112 84 75 83 8 14 68 43 40 67 39 90 37 71 24 72 26 64 46
Route #7: 52 21 82 88 105 27 44 30 114 54 9 78 53 29 50
Route #8: 104 41 91 2 25 51 19 108 48 60 86 87 73 106 66 17 89
Route #9: 69 103 61 33 81 65 23 22 96 45 12 113 58 77 38 97 80 55 76 102
Route #10: 15 32 3 93 18 109 47 79 49 99 35 42 59
Cost 12751.000000