results/x-long/X-n115-k10.vrp_seed-44.out
12747	1042
